letting n =  10
letting blocks =  [[1, 1], [1, 2], [1, 3], [1, 5], [1, 7], [1, 8], [2, 3], [2, 5], [3, 4], [4, 9], [5, 1], [6, 1], [6, 5], [6, 8], [7, 1], [7, 3], [7, 5], [7, 8], [9, 6], [9, 10], [10, 8], [10, 10]]
